atom_style full
atom_style full
atom_style full
