pair_coeff 1 1 0.080000 3.840000
pair_coeff 2 2 0.008000 1.087000
bond_coeff 1 0.957200 552.000000 -1276.000000 1787.000000
angle_coeff 1 104.520000 46.650000 -11.700000 -8.790000
angle_coeff 1 bb 0.000000 0.957200 0.957200
angle_coeff 1 ba 0.000000 0.000000 0.957200 0.957200
pair_coeff 3 3 0.0620000000 3.8540000000
pair_coeff 4 4 0.0498000000 3.6700000000
pair_coeff 5 5 0.1200000000 3.3000000000
pair_coeff 6 6 0.0230000000 2.8780000000
bond_coeff 2 1.5300 299.6700 -501.7700 679.8100
bond_coeff 3 1.1010 345.0000 -691.8900 844.6000
bond_coeff 4 1.4200 400.3954 -835.1951 1313.0142
bond_coeff 5 1.1010 345.0000 -691.8900 844.6000
angle_coeff 2 110.7700 41.4530 -10.6040 5.1290
angle_coeff 3 107.6600 39.6410 -12.9210 -2.4318
angle_coeff 4 112.6700 39.5160 -7.4430 -9.5583
angle_coeff 5 111.2700 54.5381 -8.3642 -13.0838
angle_coeff 6 110.7700 41.4530 -10.6040 5.1290
angle_coeff 7 108.7280 58.5446 -10.8088 -12.4006
angle_coeff 8 104.5000 35.7454 -10.0067 -6.2729
angle_coeff 2 bb 3.3872 1.5300 1.1010
angle_coeff 3 bb 5.3316 1.1010 1.1010
angle_coeff 4 bb 0.0000 1.5300 1.5300
angle_coeff 5 bb 11.4318 1.5300 1.4200
angle_coeff 6 bb 3.3872 1.5300 1.1010
angle_coeff 7 bb 23.1979 1.4200 1.1010
angle_coeff 8 bb -7.1131 1.4200 1.4200
angle_coeff 2 ba 20.7540 11.4210 1.5300 1.1010
angle_coeff 3 ba 18.1030 18.1030 1.1010 1.1010
angle_coeff 4 ba 8.0160 8.0160 1.5300 1.5300
angle_coeff 5 ba 2.6868 20.4033 1.5300 1.4200
angle_coeff 6 ba 20.7540 11.4210 1.5300 1.1010
angle_coeff 7 ba 55.3270 4.6189 1.4200 1.1010
angle_coeff 8 ba -2.8112 -2.8112 1.4200 1.4200
dihedral_coeff 1 0.0000 0.0000 0.0316 0.0000 -0.1681 0.0000
dihedral_coeff 2 -0.1435 0.0000 0.2530 0.0000 -0.0905 0.0000
dihedral_coeff 3 -0.1432 0.0000 0.0617 0.0000 -0.1530 0.0000
dihedral_coeff 4 -0.4000 0.0000 -0.4028 0.0000 -0.2450 0.0000
dihedral_coeff 5 0.5302 0.0000 0.0000 0.0000 -0.3966 0.0000
dihedral_coeff 1 mbt -14.8790 -3.6581 -0.3138 1.5300
dihedral_coeff 2 mbt -16.7975 -1.2296 -0.2750 1.5300
dihedral_coeff 3 mbt -14.2610 -0.5322 -0.4864 1.5300
dihedral_coeff 4 mbt -5.9288 -2.7007 -0.3175 1.4200
dihedral_coeff 5 mbt -6.8007 -4.6546 -1.4101 1.4200
dihedral_coeff 1 ebt 0.0814 0.0591 0.2219 0.2486 0.2422 -0.0925 1.1010 1.5300
dihedral_coeff 2 ebt 0.9681 0.9551 0.0436 0.5903 0.6669 0.8584 1.1010 1.4200
dihedral_coeff 3 ebt 0.2130 0.3120 0.0777 0.2130 0.3120 0.0777 1.1010 1.1010
dihedral_coeff 4 ebt -0.2456 1.0517 -0.7795 0.4741 1.2635 0.5576 1.5300 1.4200
dihedral_coeff 5 ebt -0.6054 1.3339 0.9648 -0.1620 0.1564 -1.1408 1.1010 1.4200
dihedral_coeff 1 at 0.3113 0.4516 -0.1988 -0.2454 0.0000 -0.1136 110.7700 112.6700
dihedral_coeff 2 at 2.3668 2.4920 -1.0122 -0.1892 0.4918 0.7273 110.7700 111.2700
dihedral_coeff 3 at -0.8085 0.5569 -0.2466 -0.8085 0.5569 -0.2466 110.7700 110.7700
dihedral_coeff 4 at -2.7466 1.4877 -0.8955 0.5676 0.9450 0.0703 111.2700 104.5000
dihedral_coeff 5 at -1.8234 1.6393 0.5144 -0.7777 0.4340 -0.6653 108.7280 104.5000
dihedral_coeff 1 aat -16.1640 110.7700 112.6700
dihedral_coeff 2 aat -20.2006 110.7700 111.2700
dihedral_coeff 3 aat -12.5640 110.7700 110.7700
dihedral_coeff 4 aat -19.0059 111.2700 104.5000
dihedral_coeff 5 aat -16.4438 108.7280 104.5000
dihedral_coeff 1 bb13 0.0000 1.1010 1.5300
dihedral_coeff 2 bb13 0.0000 1.1010 1.4200
dihedral_coeff 3 bb13 0.0000 1.1010 1.1010
dihedral_coeff 4 bb13 0.0000 1.5300 1.4200
dihedral_coeff 5 bb13 0.0000 1.1010 1.4200
improper_coeff 1 0.0000 0.0000
improper_coeff 2 0.0000 0.0000
improper_coeff 3 0.0000 0.0000
improper_coeff 4 0.0000 0.0000
improper_coeff 5 0.0000 0.0000
improper_coeff 1 aa 0.2738 -0.4825 0.2738 110.7700 107.6600 110.7700
improper_coeff 2 aa -0.3157 -0.3157 -0.3157 107.6600 107.6600 107.6600
improper_coeff 3 aa -0.8330 -0.8330 -3.5744 112.6700 111.2700 111.2700
improper_coeff 4 aa -1.3199 -1.3199 0.1184 112.6700 110.7700 110.7700
improper_coeff 5 aa 0.1689 2.5926 3.9177 111.2700 108.7280 110.7700
pair_coeff 7 7 0.0620000000 3.8540000000
pair_coeff 8 8 0.0748000000 3.8700000000
pair_coeff 9 9 0.0960000000 3.5800000000
pair_coeff 10 10 0.0080000000 1.0870000000
pair_coeff 11 11 0.0230000000 2.8780000000
bond_coeff 6 1.5300 299.6700 -501.7700 679.8100
bond_coeff 7 1.1010 345.0000 -691.8900 844.6000
bond_coeff 8 1.4200 400.3954 -835.1951 1313.0142
bond_coeff 9 1.1010 345.0000 -691.8900 844.6000
bond_coeff 10 0.9494 540.3633 -1311.8663 2132.4446
angle_coeff 9 110.7700 41.4530 -10.6040 5.1290
angle_coeff 10 107.6600 39.6410 -12.9210 -2.4318
angle_coeff 11 111.2700 54.5381 -8.3642 -13.0838
angle_coeff 12 110.7700 41.4530 -10.6040 5.1290
angle_coeff 13 108.7280 58.5446 -10.8088 -12.4006
angle_coeff 14 107.6600 39.6410 -12.9210 -2.4318
angle_coeff 15 105.8000 52.7061 -12.1090 -9.8681
angle_coeff 9 bb 3.3872 1.5300 1.1010
angle_coeff 10 bb 5.3316 1.1010 1.1010
angle_coeff 11 bb 11.4318 1.5300 1.4200
angle_coeff 12 bb 3.3872 1.5300 1.1010
angle_coeff 13 bb 23.1979 1.4200 1.1010
angle_coeff 14 bb 5.3316 1.1010 1.1010
angle_coeff 15 bb -9.6879 1.4200 0.9494
angle_coeff 9 ba 20.7540 11.4210 1.5300 1.1010
angle_coeff 10 ba 18.1030 18.1030 1.1010 1.1010
angle_coeff 11 ba 2.6868 20.4033 1.5300 1.4200
angle_coeff 12 ba 20.7540 11.4210 1.5300 1.1010
angle_coeff 13 ba 55.3270 4.6189 1.4200 1.1010
angle_coeff 14 ba 18.1030 18.1030 1.1010 1.1010
angle_coeff 15 ba 28.5800 18.9277 1.4200 0.9494
dihedral_coeff 6 -0.1435 0.0000 0.2530 0.0000 -0.0905 0.0000
dihedral_coeff 7 -0.1432 0.0000 0.0617 0.0000 -0.1530 0.0000
dihedral_coeff 8 -0.6732 0.0000 -0.4778 0.0000 -0.1670 0.0000
dihedral_coeff 9 0.1863 0.0000 -0.4338 0.0000 -0.2121 0.0000
dihedral_coeff 6 mbt -16.7975 -1.2296 -0.2750 1.5300
dihedral_coeff 7 mbt -14.2610 -0.5322 -0.4864 1.5300
dihedral_coeff 8 mbt 1.2472 0.0000 0.7485 1.4200
dihedral_coeff 9 mbt 0.0000 0.9241 -0.5889 1.4200
dihedral_coeff 6 ebt 0.9681 0.9551 0.0436 0.5903 0.6669 0.8584 1.1010 1.4200
dihedral_coeff 7 ebt 0.2130 0.3120 0.0777 0.2130 0.3120 0.0777 1.1010 1.1010
dihedral_coeff 8 ebt -0.5800 0.9004 0.0000 0.0000 0.5343 0.9025 1.5300 0.9494
dihedral_coeff 9 ebt -1.7554 1.3145 0.2263 0.2493 0.6803 0.0000 1.1010 0.9494
dihedral_coeff 6 at 2.3668 2.4920 -1.0122 -0.1892 0.4918 0.7273 110.7700 111.2700
dihedral_coeff 7 at -0.8085 0.5569 -0.2466 -0.8085 0.5569 -0.2466 110.7700 110.7700
dihedral_coeff 8 at -3.5903 2.5225 0.4888 0.8726 -0.3577 0.3888 111.2700 105.8000
dihedral_coeff 9 at -3.4060 1.6396 0.0737 0.0000 -0.2810 -0.5944 108.7280 105.8000
dihedral_coeff 6 aat -20.2006 110.7700 111.2700
dihedral_coeff 7 aat -12.5640 110.7700 110.7700
dihedral_coeff 8 aat -12.1038 111.2700 105.8000
dihedral_coeff 9 aat -10.5093 108.7280 105.8000
dihedral_coeff 6 bb13 0.0000 1.1010 1.4200
dihedral_coeff 7 bb13 0.0000 1.1010 1.1010
dihedral_coeff 8 bb13 0.0000 1.5300 0.9494
dihedral_coeff 9 bb13 0.0000 1.1010 0.9494
improper_coeff 6 0.0000 0.0000
improper_coeff 7 0.0000 0.0000
improper_coeff 8 0.0000 0.0000
improper_coeff 9 0.0000 0.0000
improper_coeff 10 0.0000 0.0000
improper_coeff 6 aa 0.2738 -0.4825 0.2738 110.7700 107.6600 110.7700
improper_coeff 7 aa -0.3157 -0.3157 -0.3157 107.6600 107.6600 107.6600
improper_coeff 8 aa 0.1689 2.5926 3.9177 111.2700 108.7280 110.7700
improper_coeff 9 aa 0.2738 -0.4825 0.2738 110.7700 107.6600 110.7700
improper_coeff 10 aa 2.4259 2.1283 2.4259 108.7280 107.6600 108.7280
